(set-info :smt-lib-version 2.6)
(set-logic QF_S)
(set-info :source |
Generated by: Murphy Berzish, Mitja Kulczynski, Federico Mora, Florin Manea, Joel Day, Dirk Nowotka, Vijay Ganesh, Zhengyang Lu
Generated on: 2020-10-01
Description: Translated from a collection of real-world regex queries, AutomataArk, collected by Loris D’Antoni and Fang Wang: https://github.com/lorisdanto/automatark
Application: Evaluate solvers on real-world regex queries
Target solver: Z3str3RE, CVC4, OSTRICH, Z3seq, Z3str3, Z3-Trau
Publications: Berzish, M., Kulczynski, M., Mora, F., Manea, F., Day, J. D., Nowotka, D., & Ganesh, V. (2021, July). An SMT solver for regular expressions and linear arithmetic over string length. In CAV 2021.
|)
(set-info :license "https://creativecommons.org/licenses/by/4.0/")
(set-info :category "industrial")
(set-info :status sat)

(declare-const X String)
(assert (str.in_re X (re.++ (str.to_re "cdpView") (re.* re.allchar) (str.to_re "protocol") (re.* re.allchar) (str.to_re "/s(robert@blackcastlesoft.com)\u{a}"))))
(assert (not (str.in_re X (re.++ (str.to_re "pjpoptwql/rlnj") (re.union (str.to_re " ") (str.to_re "\u{9}") (str.to_re "\u{a}") (str.to_re "\u{c}") (str.to_re "\u{d}")) (str.to_re "PG=SPEEDBARadblock.linkz.com\u{a}")))))
(assert (not (str.in_re X (re.++ (re.union (re.range "1" "9") (re.++ (str.to_re "1") (re.range "0" "2"))) (str.to_re ":") (re.range "0" "5") (re.range "0" "9") (re.opt (str.to_re " ")) (re.union (str.to_re "a") (str.to_re "A") (str.to_re "p") (str.to_re "P")) (re.union (str.to_re "m") (str.to_re "M")) (str.to_re "\u{a}")))))
(assert (not (str.in_re X (re.++ (str.to_re "/pdf.php?pdf=") (re.+ (re.union (re.range "0" "9") (re.range "A" "F"))) (str.to_re "&type=") (re.+ (re.range "0" "9")) (str.to_re "&o=") (re.+ (re.comp (str.to_re "&"))) (str.to_re "&b=/U\u{a}")))))
(check-sat)

(exit)
